
Value of objective function: 1.00000000

Actual values of the variables:
x0                              0
x1                              0
x2                              1
x3                              0
x4                              0
x5                              0
x6                              0
e0_0_0                          6
y0                              6
y1                              0
e2_0_0                          7
y2                              0
y3                              7
e3_0_0                         13
y4                              0
y5                             13
e4_0_0                         32
e4_1_0                         15
y6                              0
y7                             32
e5_1_0                          8
y8                              0
y9                             15
y10                             0
y11                             8
e6_0_0                         34
y12                             0
y13                            34
e5_0_B_0_0                     40
y14                             0
y15                            40
